10 11 9 6 4 2 1 75 
78 76 71 70 73 77 79 81 82 83 86 
41 40 59 57 80 63 
98 96 95 94 92 93 97 100 99 
13 17 15 28 26 23 22 21 
20 24 25 27 29 30 18 19 16 14 12 
8 7 3 5 
90 87 84 85 88 89 91 
67 65 62 74 72 61 64 68 66 69 
43 42 44 45 46 47 
55 54 53 56 58 60 48 51 50 52 49 
32 33 31 35 37 38 39 36 34 
